(set-logic QF_LRA)
(declare-fun T1 () Real )
(declare-fun T2 () Real )
(declare-fun T3 () Real )
(declare-fun T4 () Real )
(declare-fun T5 () Real )
(declare-fun T6 () Real )
(declare-fun Z () Real )
(declare-fun k () Real )
(assert (let
(( $goal (>= Z k) ))
(let
((
$phi ( and 
(or ( <= ( + T1 61 ) T2 ) ( <= ( + T2 51 ) T1 ) )
(or ( <= ( + T1 121 )  ( + T2 51 ) ) ( <= ( + T2 87 )( + T1 61 ) ) )
(or ( <= ( + T1 183 )  ( + T2 87 ) ) ( <= ( + T2 171 )( + T1 121 ) ) )
(or ( <= ( + T1 266 )  ( + T2 171 ) ) ( <= ( + T2 263 )( + T1 183 ) ) )
(or ( <= ( + T1 323 )  ( + T2 263 ) ) ( <= ( + T2 287 )( + T1 266 ) ) )
(or ( <= ( + T1 387 )  ( + T2 287 ) ) ( <= ( + T2 308 )( + T1 323 ) ) )
(or ( <= ( + T1 440 )  ( + T2 308 ) ) ( <= ( + T2 363 )( + T1 387 ) ) )
(or ( <= ( + T1 501 )  ( + T2 363 ) ) ( <= ( + T2 379 )( + T1 440 ) ) )
(or ( <= ( + T1 61 ) T3 ) ( <= ( + T3 75 ) T1 ) )
(or ( <= ( + T1 121 )  ( + T3 75 ) ) ( <= ( + T3 106 )( + T1 61 ) ) )
(or ( <= ( + T1 183 )  ( + T3 106 ) ) ( <= ( + T3 200 )( + T1 121 ) ) )
(or ( <= ( + T1 266 )  ( + T3 200 ) ) ( <= ( + T3 221 )( + T1 183 ) ) )
(or ( <= ( + T1 323 )  ( + T3 221 ) ) ( <= ( + T3 292 )( + T1 266 ) ) )
(or ( <= ( + T1 387 )  ( + T3 292 ) ) ( <= ( + T3 309 )( + T1 323 ) ) )
(or ( <= ( + T1 440 )  ( + T3 309 ) ) ( <= ( + T3 347 )( + T1 387 ) ) )
(or ( <= ( + T1 501 )  ( + T3 347 ) ) ( <= ( + T3 378 )( + T1 440 ) ) )
(or ( <= ( + T1 61 ) T4 ) ( <= ( + T4 38 ) T1 ) )
(or ( <= ( + T1 121 )  ( + T4 38 ) ) ( <= ( + T4 59 )( + T1 61 ) ) )
(or ( <= ( + T1 183 )  ( + T4 59 ) ) ( <= ( + T4 143 )( + T1 121 ) ) )
(or ( <= ( + T1 266 )  ( + T4 143 ) ) ( <= ( + T4 184 )( + T1 183 ) ) )
(or ( <= ( + T1 323 )  ( + T4 184 ) ) ( <= ( + T4 203 )( + T1 266 ) ) )
(or ( <= ( + T1 387 )  ( + T4 203 ) ) ( <= ( + T4 235 )( + T1 323 ) ) )
(or ( <= ( + T1 440 )  ( + T4 235 ) ) ( <= ( + T4 292 )( + T1 387 ) ) )
(or ( <= ( + T1 501 )  ( + T4 292 ) ) ( <= ( + T4 323 )( + T1 440 ) ) )
(or ( <= ( + T1 61 ) T5 ) ( <= ( + T5 43 ) T1 ) )
(or ( <= ( + T1 121 )  ( + T5 43 ) ) ( <= ( + T5 61 )( + T1 61 ) ) )
(or ( <= ( + T1 183 )  ( + T5 61 ) ) ( <= ( + T5 127 )( + T1 121 ) ) )
(or ( <= ( + T1 266 )  ( + T5 127 ) ) ( <= ( + T5 226 )( + T1 183 ) ) )
(or ( <= ( + T1 323 )  ( + T5 226 ) ) ( <= ( + T5 307 )( + T1 266 ) ) )
(or ( <= ( + T1 387 )  ( + T5 307 ) ) ( <= ( + T5 325 )( + T1 323 ) ) )
(or ( <= ( + T1 440 )  ( + T5 325 ) ) ( <= ( + T5 337 )( + T1 387 ) ) )
(or ( <= ( + T1 501 )  ( + T5 337 ) ) ( <= ( + T5 420 )( + T1 440 ) ) )
(or ( <= ( + T1 61 ) T6 ) ( <= ( + T6 54 ) T1 ) )
(or ( <= ( + T1 121 )  ( + T6 54 ) ) ( <= ( + T6 101 )( + T1 61 ) ) )
(or ( <= ( + T1 183 )  ( + T6 101 ) ) ( <= ( + T6 128 )( + T1 121 ) ) )
(or ( <= ( + T1 266 )  ( + T6 128 ) ) ( <= ( + T6 157 )( + T1 183 ) ) )
(or ( <= ( + T1 323 )  ( + T6 157 ) ) ( <= ( + T6 176 )( + T1 266 ) ) )
(or ( <= ( + T1 387 )  ( + T6 176 ) ) ( <= ( + T6 257 )( + T1 323 ) ) )
(or ( <= ( + T1 440 )  ( + T6 257 ) ) ( <= ( + T6 353 )( + T1 387 ) ) )
(or ( <= ( + T1 501 )  ( + T6 353 ) ) ( <= ( + T6 446 )( + T1 440 ) ) )
(or ( <= ( + T2 51 ) T3 ) ( <= ( + T3 75 ) T2 ) )
(or ( <= ( + T2 87 )  ( + T3 75 ) ) ( <= ( + T3 106 )( + T2 51 ) ) )
(or ( <= ( + T2 171 )  ( + T3 106 ) ) ( <= ( + T3 200 )( + T2 87 ) ) )
(or ( <= ( + T2 263 )  ( + T3 200 ) ) ( <= ( + T3 221 )( + T2 171 ) ) )
(or ( <= ( + T2 287 )  ( + T3 221 ) ) ( <= ( + T3 292 )( + T2 263 ) ) )
(or ( <= ( + T2 308 )  ( + T3 292 ) ) ( <= ( + T3 309 )( + T2 287 ) ) )
(or ( <= ( + T2 363 )  ( + T3 309 ) ) ( <= ( + T3 347 )( + T2 308 ) ) )
(or ( <= ( + T2 379 )  ( + T3 347 ) ) ( <= ( + T3 378 )( + T2 363 ) ) )
(or ( <= ( + T2 51 ) T4 ) ( <= ( + T4 38 ) T2 ) )
(or ( <= ( + T2 87 )  ( + T4 38 ) ) ( <= ( + T4 59 )( + T2 51 ) ) )
(or ( <= ( + T2 171 )  ( + T4 59 ) ) ( <= ( + T4 143 )( + T2 87 ) ) )
(or ( <= ( + T2 263 )  ( + T4 143 ) ) ( <= ( + T4 184 )( + T2 171 ) ) )
(or ( <= ( + T2 287 )  ( + T4 184 ) ) ( <= ( + T4 203 )( + T2 263 ) ) )
(or ( <= ( + T2 308 )  ( + T4 203 ) ) ( <= ( + T4 235 )( + T2 287 ) ) )
(or ( <= ( + T2 363 )  ( + T4 235 ) ) ( <= ( + T4 292 )( + T2 308 ) ) )
(or ( <= ( + T2 379 )  ( + T4 292 ) ) ( <= ( + T4 323 )( + T2 363 ) ) )
(or ( <= ( + T2 51 ) T5 ) ( <= ( + T5 43 ) T2 ) )
(or ( <= ( + T2 87 )  ( + T5 43 ) ) ( <= ( + T5 61 )( + T2 51 ) ) )
(or ( <= ( + T2 171 )  ( + T5 61 ) ) ( <= ( + T5 127 )( + T2 87 ) ) )
(or ( <= ( + T2 263 )  ( + T5 127 ) ) ( <= ( + T5 226 )( + T2 171 ) ) )
(or ( <= ( + T2 287 )  ( + T5 226 ) ) ( <= ( + T5 307 )( + T2 263 ) ) )
(or ( <= ( + T2 308 )  ( + T5 307 ) ) ( <= ( + T5 325 )( + T2 287 ) ) )
(or ( <= ( + T2 363 )  ( + T5 325 ) ) ( <= ( + T5 337 )( + T2 308 ) ) )
(or ( <= ( + T2 379 )  ( + T5 337 ) ) ( <= ( + T5 420 )( + T2 363 ) ) )
(or ( <= ( + T2 51 ) T6 ) ( <= ( + T6 54 ) T2 ) )
(or ( <= ( + T2 87 )  ( + T6 54 ) ) ( <= ( + T6 101 )( + T2 51 ) ) )
(or ( <= ( + T2 171 )  ( + T6 101 ) ) ( <= ( + T6 128 )( + T2 87 ) ) )
(or ( <= ( + T2 263 )  ( + T6 128 ) ) ( <= ( + T6 157 )( + T2 171 ) ) )
(or ( <= ( + T2 287 )  ( + T6 157 ) ) ( <= ( + T6 176 )( + T2 263 ) ) )
(or ( <= ( + T2 308 )  ( + T6 176 ) ) ( <= ( + T6 257 )( + T2 287 ) ) )
(or ( <= ( + T2 363 )  ( + T6 257 ) ) ( <= ( + T6 353 )( + T2 308 ) ) )
(or ( <= ( + T2 379 )  ( + T6 353 ) ) ( <= ( + T6 446 )( + T2 363 ) ) )
(or ( <= ( + T3 75 ) T4 ) ( <= ( + T4 38 ) T3 ) )
(or ( <= ( + T3 106 )  ( + T4 38 ) ) ( <= ( + T4 59 )( + T3 75 ) ) )
(or ( <= ( + T3 200 )  ( + T4 59 ) ) ( <= ( + T4 143 )( + T3 106 ) ) )
(or ( <= ( + T3 221 )  ( + T4 143 ) ) ( <= ( + T4 184 )( + T3 200 ) ) )
(or ( <= ( + T3 292 )  ( + T4 184 ) ) ( <= ( + T4 203 )( + T3 221 ) ) )
(or ( <= ( + T3 309 )  ( + T4 203 ) ) ( <= ( + T4 235 )( + T3 292 ) ) )
(or ( <= ( + T3 347 )  ( + T4 235 ) ) ( <= ( + T4 292 )( + T3 309 ) ) )
(or ( <= ( + T3 378 )  ( + T4 292 ) ) ( <= ( + T4 323 )( + T3 347 ) ) )
(or ( <= ( + T3 75 ) T5 ) ( <= ( + T5 43 ) T3 ) )
(or ( <= ( + T3 106 )  ( + T5 43 ) ) ( <= ( + T5 61 )( + T3 75 ) ) )
(or ( <= ( + T3 200 )  ( + T5 61 ) ) ( <= ( + T5 127 )( + T3 106 ) ) )
(or ( <= ( + T3 221 )  ( + T5 127 ) ) ( <= ( + T5 226 )( + T3 200 ) ) )
(or ( <= ( + T3 292 )  ( + T5 226 ) ) ( <= ( + T5 307 )( + T3 221 ) ) )
(or ( <= ( + T3 309 )  ( + T5 307 ) ) ( <= ( + T5 325 )( + T3 292 ) ) )
(or ( <= ( + T3 347 )  ( + T5 325 ) ) ( <= ( + T5 337 )( + T3 309 ) ) )
(or ( <= ( + T3 378 )  ( + T5 337 ) ) ( <= ( + T5 420 )( + T3 347 ) ) )
(or ( <= ( + T3 75 ) T6 ) ( <= ( + T6 54 ) T3 ) )
(or ( <= ( + T3 106 )  ( + T6 54 ) ) ( <= ( + T6 101 )( + T3 75 ) ) )
(or ( <= ( + T3 200 )  ( + T6 101 ) ) ( <= ( + T6 128 )( + T3 106 ) ) )
(or ( <= ( + T3 221 )  ( + T6 128 ) ) ( <= ( + T6 157 )( + T3 200 ) ) )
(or ( <= ( + T3 292 )  ( + T6 157 ) ) ( <= ( + T6 176 )( + T3 221 ) ) )
(or ( <= ( + T3 309 )  ( + T6 176 ) ) ( <= ( + T6 257 )( + T3 292 ) ) )
(or ( <= ( + T3 347 )  ( + T6 257 ) ) ( <= ( + T6 353 )( + T3 309 ) ) )
(or ( <= ( + T3 378 )  ( + T6 353 ) ) ( <= ( + T6 446 )( + T3 347 ) ) )
(or ( <= ( + T4 38 ) T5 ) ( <= ( + T5 43 ) T4 ) )
(or ( <= ( + T4 59 )  ( + T5 43 ) ) ( <= ( + T5 61 )( + T4 38 ) ) )
(or ( <= ( + T4 143 )  ( + T5 61 ) ) ( <= ( + T5 127 )( + T4 59 ) ) )
(or ( <= ( + T4 184 )  ( + T5 127 ) ) ( <= ( + T5 226 )( + T4 143 ) ) )
(or ( <= ( + T4 203 )  ( + T5 226 ) ) ( <= ( + T5 307 )( + T4 184 ) ) )
(or ( <= ( + T4 235 )  ( + T5 307 ) ) ( <= ( + T5 325 )( + T4 203 ) ) )
(or ( <= ( + T4 292 )  ( + T5 325 ) ) ( <= ( + T5 337 )( + T4 235 ) ) )
(or ( <= ( + T4 323 )  ( + T5 337 ) ) ( <= ( + T5 420 )( + T4 292 ) ) )
(or ( <= ( + T4 38 ) T6 ) ( <= ( + T6 54 ) T4 ) )
(or ( <= ( + T4 59 )  ( + T6 54 ) ) ( <= ( + T6 101 )( + T4 38 ) ) )
(or ( <= ( + T4 143 )  ( + T6 101 ) ) ( <= ( + T6 128 )( + T4 59 ) ) )
(or ( <= ( + T4 184 )  ( + T6 128 ) ) ( <= ( + T6 157 )( + T4 143 ) ) )
(or ( <= ( + T4 203 )  ( + T6 157 ) ) ( <= ( + T6 176 )( + T4 184 ) ) )
(or ( <= ( + T4 235 )  ( + T6 176 ) ) ( <= ( + T6 257 )( + T4 203 ) ) )
(or ( <= ( + T4 292 )  ( + T6 257 ) ) ( <= ( + T6 353 )( + T4 235 ) ) )
(or ( <= ( + T4 323 )  ( + T6 353 ) ) ( <= ( + T6 446 )( + T4 292 ) ) )
(or ( <= ( + T5 43 ) T6 ) ( <= ( + T6 54 ) T5 ) )
(or ( <= ( + T5 61 )  ( + T6 54 ) ) ( <= ( + T6 101 )( + T5 43 ) ) )
(or ( <= ( + T5 127 )  ( + T6 101 ) ) ( <= ( + T6 128 )( + T5 61 ) ) )
(or ( <= ( + T5 226 )  ( + T6 128 ) ) ( <= ( + T6 157 )( + T5 127 ) ) )
(or ( <= ( + T5 307 )  ( + T6 157 ) ) ( <= ( + T6 176 )( + T5 226 ) ) )
(or ( <= ( + T5 325 )  ( + T6 176 ) ) ( <= ( + T6 257 )( + T5 307 ) ) )
(or ( <= ( + T5 337 )  ( + T6 257 ) ) ( <= ( + T6 353 )( + T5 325 ) ) )
(or ( <= ( + T5 420 )  ( + T6 353 ) ) ( <= ( + T6 446 )( + T5 337 ) ) )
( <= ( + T1 501 ) Z)
( <= ( + T2 379 ) Z)
( <= ( + T3 378 ) Z)
( <= ( + T4 323 ) Z)
( <= ( + T5 420 ) Z)
( <= ( + T6 446 ) Z)
( >= T1 0 )
( >= T2 0 )
( >= T3 0 )
( >= T4 0 )
( >= T5 0 )
( >= T6 0 )
) )
)(=> $phi $goal))))